NAME : amz1033.1660028_160028.tour
COMMENT : Cost = 1660028_160028
COMMENT : Found by LKH-AMZ [Keld Helsgaun] Sun May 11 14:44:31 2025
COMMENT : TW viol.: 0 #: 0
TYPE : TOUR
DIMENSION : 177
TOUR_SECTION
98
152
166
96
109
84
31
119
139
77
169
113
75
173
91
129
61
6
30
87
112
95
65
74
22
17
12
20
172
120
18
32
21
41
94
85
155
117
88
124
161
147
54
101
27
56
121
64
68
111
106
86
90
9
89
25
130
72
115
1
168
128
103
126
165
2
71
47
53
158
16
62
163
63
73
66
134
157
143
26
150
43
10
104
42
15
149
127
164
102
55
153
108
105
176
141
51
151
76
8
137
67
11
97
80
45
36
93
154
133
28
33
29
146
46
99
140
174
34
59
40
50
142
118
24
135
167
81
3
131
177
171
122
49
92
48
58
100
145
144
159
107
82
35
110
70
69
162
5
160
175
39
136
78
44
138
148
13
156
132
123
37
14
79
19
7
57
116
23
52
38
125
83
60
4
170
114
-1
EOF
